% Auto-generated by scripts/generate_dzn.py
% problem_type   = regex
% instance       = regex_27
% source_json    = instances_json/2_high_blowup/regex_27.json
% blowup         = 18.61904761904762
% representation = NFA

mode = 1;

var_count = 37;
n_constraints = 2;
Q = 27;
S = 2;
q0 = [1, 1];
F = [{15}, {27}];
weights = [8, 1, 9, 5, 8, 4, 1, 3, 1, 5, 2, 8, 4, 1, 10, 4, 10, 8, 6, 9, 4, 7, 1, 8, 2, 2, 4, 2, 4, 9, 9, 7, 1, 7, 3, 3, 3];
d_dfa = array3d(1..2, 1..27, 1..2, [
  % k = 1
    0, 0,
    0, 0,
    0, 0,
    0, 0,
    0, 0,
    0, 0,
    0, 0,
    0, 0,
    0, 0,
    0, 0,
    0, 0,
    0, 0,
    0, 0,
    0, 0,
    0, 0,
    0, 0,
    0, 0,
    0, 0,
    0, 0,
    0, 0,
    0, 0,
    0, 0,
    0, 0,
    0, 0,
    0, 0,
    0, 0,
    0, 0,

  % k = 2
    0, 0,
    0, 0,
    0, 0,
    0, 0,
    0, 0,
    0, 0,
    0, 0,
    0, 0,
    0, 0,
    0, 0,
    0, 0,
    0, 0,
    0, 0,
    0, 0,
    0, 0,
    0, 0,
    0, 0,
    0, 0,
    0, 0,
    0, 0,
    0, 0,
    0, 0,
    0, 0,
    0, 0,
    0, 0,
    0, 0,
    0, 0
]);
d_nfa = array3d(1..2, 1..27, 1..2, [
  % k = 1
    {1, 2}, {1},
    {}, {3},
    {4}, {},
    {5}, {5},
    {6}, {6},
    {7}, {7},
    {8}, {8},
    {9}, {9},
    {10}, {10},
    {11}, {11},
    {12}, {12},
    {13}, {13},
    {14}, {14},
    {15}, {15},
    {}, {},
    {}, {},
    {}, {},
    {}, {},
    {}, {},
    {}, {},
    {}, {},
    {}, {},
    {}, {},
    {}, {},
    {}, {},
    {}, {},
    {}, {},

  % k = 2
    {1}, {2},
    {2}, {3},
    {3}, {4},
    {4}, {5},
    {5}, {6},
    {6}, {7},
    {7}, {8},
    {8}, {9},
    {9}, {10},
    {10}, {11},
    {11}, {12},
    {12}, {13},
    {13}, {14},
    {14}, {15},
    {15}, {16},
    {16}, {17},
    {17}, {18},
    {18}, {19},
    {19}, {20},
    {20}, {21},
    {21}, {22},
    {22}, {23},
    {23}, {24},
    {24}, {25},
    {25}, {26},
    {26}, {27},
    {27}, {}
]);
